22340
1 1 1 1 1 1 1 1 1 1 1 1 1 0 1 1 1 0 0 1 0 0 1 0 0 0 0 0 1 0 
7 19 2 22 2 12 15 28 22 28 4 28 10 1 28 7 1 10 22 0 11 16 5 0 10 11 22 19 4 2 19 19 4 16 28 6 8 8 16 16 7 9 6 4 8 19 3 2 19 14 0 16 2 16 8 6 11 9 22 7 4 0 7 8 3 11 5 14 28 12 7 12 19 9 5 10 10 5 8 16 10 0 9 7 4 10 6 5 22 7 28 6 7 11 2 3 11 6 0 28 28 15 12 7 4 0 4 16 22 3 19 4 22 12 12 8 28 7 14 8 9 11 28 19 9 16 2 11 19 0 28 16 11 10 1 9 3 3 28 10 12 22 11 11 11 5 16 15 22 7 0 0 10 0 8 11 2 15 3 3 1 0 10 2 5 28 5 4 3 15 1 8 19 14 4 2 0 10 4 10 5 15 2 19 12 8 28 10 0 2 2 2 6 4 7 12 7 15 10 19 
